unsat
((set-logic NIA)
(declare-fun a!4 () Int)
(declare-fun q!3 () Int)
(declare-fun b!2 () Int)
(declare-fun p!5 () Int)
(declare-fun s!0 () Int)
(declare-fun r!1 () Int)
(proof
(let ((?x1277 (* q!3 a!4)))
 (let ((?x1015 (* p!5 b!2)))
 (let ((?x1017 (* (- 1) ?x1015)))
 (let ((?x138 (* q00 a00)))
 (let ((?x184 (* (- 1) ?x138)))
 (let ((?x123 (* p00 b00)))
 (let ((?x1023 (+ ?x123 ?x184 ?x1017 ?x1277)))
 (let (($x1480 (>= ?x1023 0)))
 (let (($x1186 (= ?x1023 0)))
 (let ((?x137 (* (- 1) ?x123)))
 (let ((?x892 (+ ?x137 ?x138 ?x1015 (* (- 1) ?x1277))))
 (let ((?x2218 (* p!5 q!3 q!3 a!4 a!4 b!2 b!2 b!2 b!2 s!0 s!0)))
 (let ((?x2217 (* q!3 q!3 q!3 a!4 a!4 a!4 b!2 b!2 b!2 s!0 s!0)))
 (let ((?x2106 (* p!5 q!3 q!3 b!2 b!2 b!2 b!2 b!2 b!2 r!1 s!0)))
 (let ((?x2077 (* (- 3) (* p!5 q!3 q!3 b!2 b!2 s!0 s!0))))
 (let ((?x1944 (* q!3 q!3 q!3 b!2 b!2 b!2 b!2 b!2 b!2 r!1 s!0)))
 (let ((?x1945 (* (- 1) ?x1944)))
 (let ((?x1876 (* p!5 q!3 q!3 a!4 a!4 a!4 b!2 b!2 b!2 r!1 s!0)))
 (let ((?x1882 (* (- 1) ?x1876)))
 (let ((?x1770 (* q!3 q!3 q!3 a!4 a!4 b!2 b!2 b!2 b!2 r!1 s!0)))
 (let ((?x1766 (* p!5 q!3 q!3 a!4 a!4 b!2 b!2 b!2 b!2 r!1 s!0)))
 (let ((?x1516 (* q!3 q!3 q!3 b!2 b!2 s!0 s!0)))
 (let ((?x1465 (* (- 1) (* p!5 p!5 p!5 a!4 a!4 s!0 s!0))))
 (let ((?x1378 (* q!3 q!3 q!3 b!2 b!2 b!2 b!2 b!2 b!2 s!0 s!0)))
 (let ((?x1292 (* 3 (* p!5 p!5 q!3 b!2 b!2 s!0 s!0))))
 (let ((?x1168 (* p!5 q!3 q!3 a!4 a!4 a!4 b!2 b!2 b!2 s!0 s!0)))
 (let ((?x775 (* (- 1) (* q!3 b!2 b!2 b!2 s!0 s!0 s!0 s!0))))
 (let ((?x885 (* q!3 b!2 b!2 b!2 r!1 s!0 s!0 s!0)))
 (let ((?x810 (* q!3 q!3 q!3 a!4 a!4 b!2 b!2 b!2 b!2 s!0 s!0)))
 (let ((?x767 (* 2 (* p!5 p!5 p!5 a!4 b!2 s!0 s!0))))
 (let ((?x2219 (* (- 1) (* p!5 p!5 p!5 b!2 b!2 s!0 s!0))))
 (let ((?x1880 (* (- 1) (* q!3 a!4 a!4 a!4 r!1 s!0 s!0 s!0))))
 (let ((?x566 (* q!3 q!3 q!3 a!4 b!2 b!2 b!2 b!2 b!2 s!0 s!0)))
 (let ((?x512 (* q!3 q!3 q!3 a!4 a!4 a!4 b!2 b!2 b!2 r!1 s!0)))
 (let ((?x499 (* p!5 q!3 q!3 a!4 b!2 b!2 b!2 b!2 b!2 r!1 s!0)))
 (let ((?x491 (* q!3 q!3 q!3 a!4 b!2 b!2 b!2 b!2 b!2 r!1 s!0)))
 (let ((?x292 (* p!5 q!3 q!3 a!4 b!2 b!2 b!2 b!2 b!2 s!0 s!0)))
 (let ((?x237 (* p!5 q!3 q!3 b!2 b!2 b!2 b!2 b!2 b!2 s!0 s!0)))
 (let ((?x244 (* (- 1) ?x237)))
 (let ((?x542 (+ ?x244 (* 3 ?x292) (* 3 ?x491) (* (- 3) ?x499) ?x512 (* (- 3) (* q!3 a!4 b!2 b!2 r!1 s!0 s!0 s!0)) (* (- 3) ?x566) ?x1880 ?x2219 ?x767 (* 3 ?x810) (* 6 (* p!5 q!3 q!3 a!4 b!2 s!0 s!0)) (* (- 3) (* p!5 q!3 q!3 a!4 a!4 s!0 s!0)) (* (- 6) (* p!5 p!5 q!3 a!4 b!2 s!0 s!0)) (* 3 (* p!5 p!5 q!3 a!4 a!4 s!0 s!0)) (* 3 (* q!3 a!4 b!2 b!2 s!0 s!0 s!0 s!0)) ?x885 (* q!3 q!3 q!3 a!4 a!4 s!0 s!0) ?x775 ?x1168 ?x1292 (* (- 3) (* q!3 a!4 a!4 b!2 s!0 s!0 s!0 s!0)) ?x1378 ?x1465 ?x1516 (* 3 ?x1766) (* (- 3) ?x1770) (* (- 2) (* q!3 q!3 q!3 a!4 b!2 s!0 s!0)) ?x1882 ?x1945 (* 3 (* q!3 a!4 a!4 b!2 r!1 s!0 s!0 s!0)) ?x2077 (* q!3 a!4 a!4 a!4 s!0 s!0 s!0 s!0) ?x2106 (* (- 1) ?x2217) (* (- 3) ?x2218))))
 (let ((?x550 (* ?x542 ?x892)))
 (let (($x839 (= ?x550 0)))
 (let ((?x2088 (* p!5 p!5 p!5 a!4 a!4 a!4 a!4 b!2 b!2 r!1 s!0)))
 (let ((?x1507 (* 3 ?x2088)))
 (let ((?x2083 (* p!5 p!5 p!5 a!4 a!4 a!4 a!4 a!4 b!2 r!1 s!0)))
 (let ((?x2087 (* (- 3) ?x2083)))
 (let ((?x2068 (* p!5 p!5 q!3 a!4 a!4 a!4 a!4 b!2 b!2 r!1 r!1)))
 (let ((?x2049 (* p!5 p!5 p!5 a!4 a!4 a!4 a!4 a!4 b!2 r!1 r!1)))
 (let ((?x2050 (* 3 ?x2049)))
 (let ((?x2013 (* p!5 a!4 a!4 a!4 r!1 s!0 s!0 s!0)))
 (let ((?x1888 (* p!5 q!3 q!3 a!4 a!4 a!4 a!4 a!4 b!2 r!1 s!0)))
 (let ((?x1883 (* p!5 p!5 q!3 a!4 a!4 a!4 a!4 a!4 a!4 r!1 r!1)))
 (let ((?x1841 (* p!5 p!5 q!3 a!4 a!4 a!4 a!4 a!4 b!2 r!1 s!0)))
 (let ((?x1833 (* p!5 p!5 q!3 a!4 a!4 a!4 b!2 b!2 b!2 r!1 s!0)))
 (let ((?x1831 (* p!5 q!3 q!3 a!4 a!4 a!4 a!4 a!4 a!4 r!1 s!0)))
 (let ((?x1822 (* p!5 q!3 q!3 a!4 a!4 a!4 a!4 a!4 a!4 r!1 r!1)))
 (let ((?x1765 (* p!5 p!5 q!3 a!4 a!4 a!4 b!2 b!2 b!2 r!1 r!1)))
 (let ((?x1757 (* p!5 p!5 p!5 a!4 a!4 a!4 a!4 a!4 a!4 r!1 s!0)))
 (let ((?x1512 (* p!5 p!5 p!5 a!4 a!4 a!4 b!2 b!2 b!2 r!1 s!0)))
 (let ((?x1513 (* (- 1) ?x1512)))
 (let ((?x1473 (* p!5 p!5 p!5 a!4 a!4 a!4 a!4 a!4 a!4 r!1 r!1)))
 (let ((?x2046 (* (- 1) ?x1473)))
 (let ((?x1454 (* 3 (* p!5 a!4 a!4 a!4 r!1 r!1 r!1 s!0))))
 (let ((?x1455 (* (- 1) (* p!5 a!4 a!4 a!4 r!1 r!1 r!1 r!1))))
 (let ((?x1234 (* p!5 p!5 q!3 a!4 a!4 a!4 a!4 a!4 a!4 r!1 s!0)))
 (let ((?x816 (* p!5 q!3 q!3 a!4 a!4 a!4 a!4 a!4 b!2 r!1 r!1)))
 (let ((?x801 (* p!5 q!3 q!3 a!4 a!4 a!4 b!2 b!2 b!2 r!1 r!1)))
 (let ((?x661 (* p!5 p!5 p!5 a!4 a!4 a!4 a!4 b!2 b!2 r!1 r!1)))
 (let ((?x448 (* (- 3) ?x661)))
 (let ((?x648 (* p!5 p!5 q!3 a!4 a!4 a!4 a!4 b!2 b!2 r!1 s!0)))
 (let ((?x579 (* p!5 p!5 p!5 a!4 a!4 a!4 b!2 b!2 b!2 r!1 r!1)))
 (let ((?x535 (* (- 1) (* p!5 p!5 p!5 a!4 a!4 r!1 r!1))))
 (let ((?x507 (* 2 (* p!5 p!5 p!5 a!4 a!4 r!1 s!0))))
 (let ((?x1110 (* (- 3) (* p!5 a!4 a!4 a!4 r!1 r!1 s!0 s!0))))
 (let ((?x281 (* p!5 q!3 q!3 a!4 a!4 a!4 a!4 b!2 b!2 r!1 r!1)))
 (let ((?x265 (* p!5 p!5 q!3 a!4 a!4 a!4 a!4 a!4 b!2 r!1 r!1)))
 (let ((?x189 (* p!5 q!3 q!3 a!4 a!4 a!4 a!4 b!2 b!2 r!1 s!0)))
 (let ((?x556 (+ (* 3 ?x189) (* (- 6) ?x265) (* (- 3) ?x281) ?x1110 ?x507 ?x535 ?x579 ?x1880 (* (- 6) ?x648) ?x448 ?x801 (* 3 ?x816) (* (- 2) ?x1234) ?x1455 ?x1454 ?x1465 ?x2046 ?x1513 ?x1757 (* (- 2) ?x1765) (* (- 1) ?x1822) ?x1831 (* 2 ?x1833) (* 6 ?x1841) ?x1882 (* 3 (* q!3 a!4 a!4 a!4 r!1 r!1 s!0 s!0)) (* 2 ?x1883) (* (- 3) ?x1888) (* q!3 a!4 a!4 a!4 r!1 r!1 r!1 r!1) ?x2013 ?x2050 (* 6 ?x2068) ?x2087 ?x1507 (* (- 3) (* q!3 a!4 a!4 a!4 r!1 r!1 r!1 s!0)))))
 (let ((?x869 (* ?x556 ?x892)))
 (let (($x509 (= ?x869 0)))
 (let (($x894 (not $x509)))
 (let (($x1342 (or $x894 (not $x839))))
 (let ((?x1838 (+ (* p00 s00 b!2) (* (- 1) (* q00 r00 b!2)) (* q00 a00 s!0) (* (- 1) (* s00 a00 q!3)) (* r00 b00 q!3) (* (- 1) (* p00 b00 s!0)))))
 (let ((?x999 (+ (* p00 b00 r!1) (* s00 a00 p!5) (* (- 1) (* q00 a00 r!1)) (* (- 1) (* p00 s00 a!4)) (* (- 1) (* r00 b00 p!5)) (* q00 r00 a!4))))
 (let ((?x1013 (* b!2 r!1)))
 (let ((?x134 (* s00 a00)))
 (let (($x1264 (= (+ ?x134 (* (- 1) (* r00 b00)) (* (- 1) (* a!4 s!0)) ?x1013) 0)))
 (let ((?x1220 (* q!3 r!1)))
 (let ((?x41 (* q00 r00)))
 (let ((?x934 (* (- 1) ?x41)))
 (let ((?x37 (* p00 s00)))
 (let (($x1223 (and (= (+ ?x37 ?x934 (* (- 1) (* p!5 s!0)) ?x1220) 0) $x1264 $x1186 (= ?x999 0) (= ?x1838 0) $x1342)))
 (let ((?x275 (+ ?x137 (* (- 1) (* a!4 q!3)) ?x138 ?x1015)))
 (let ((?x1371 (* a!4 q!3 q!3 q!3 b!2 b!2 b!2 b!2 b!2 s!0 s!0)))
 (let ((?x1600 (* a!4 a!4 q!3 q!3 q!3 b!2 b!2 b!2 b!2 s!0 s!0)))
 (let ((?x245 (* a!4 a!4 a!4 q!3 q!3 q!3 b!2 b!2 b!2 s!0 s!0)))
 (let ((?x1675 (* p!5 a!4 q!3 q!3 b!2 b!2 b!2 b!2 b!2 s!0 s!0)))
 (let ((?x1669 (* p!5 a!4 a!4 q!3 q!3 b!2 b!2 b!2 b!2 s!0 s!0)))
 (let ((?x1947 (* p!5 a!4 a!4 a!4 q!3 q!3 b!2 b!2 b!2 s!0 s!0)))
 (let ((?x1920 (* a!4 q!3 q!3 q!3 b!2 b!2 b!2 b!2 b!2 r!1 s!0)))
 (let ((?x1652 (* a!4 a!4 q!3 q!3 q!3 b!2 b!2 b!2 b!2 r!1 s!0)))
 (let ((?x1648 (* a!4 a!4 a!4 q!3 q!3 q!3 b!2 b!2 b!2 r!1 s!0)))
 (let ((?x2099 (* p!5 a!4 q!3 q!3 b!2 b!2 b!2 b!2 b!2 r!1 s!0)))
 (let ((?x834 (* p!5 a!4 a!4 q!3 q!3 b!2 b!2 b!2 b!2 r!1 s!0)))
 (let ((?x799 (* p!5 a!4 a!4 a!4 q!3 q!3 b!2 b!2 b!2 r!1 s!0)))
 (let ((?x620 (* (- 1) ?x799)))
 (let ((?x1826 (* (- 1) (* a!4 a!4 a!4 q!3 r!1 s!0 s!0 s!0))))
 (let ((?x756 (+ (* 3 (* a!4 a!4 q!3 b!2 r!1 s!0 s!0 s!0)) ?x1826 ?x620 (* 3 ?x834) (* a!4 a!4 a!4 q!3 s!0 s!0 s!0 s!0) (* (- 3) ?x2099) ?x2106 ?x1648 (* (- 3) ?x1652) (* 3 ?x1920) ?x1945 ?x1947 (* (- 3) ?x1669) (* 3 ?x1675) ?x244 (* (- 1) ?x245) (* 3 ?x1600) (* (- 3) ?x1371) ?x1378 (* (- 3) (* a!4 q!3 b!2 b!2 r!1 s!0 s!0 s!0)) ?x1465 ?x767 ?x2219 (* 3 (* p!5 p!5 a!4 a!4 q!3 s!0 s!0)) (* (- 6) (* p!5 p!5 a!4 q!3 b!2 s!0 s!0)) ?x1292 (* (- 3) (* p!5 a!4 a!4 q!3 q!3 s!0 s!0)) (* 6 (* p!5 a!4 q!3 q!3 b!2 s!0 s!0)) ?x2077 (* 3 (* a!4 q!3 b!2 b!2 s!0 s!0 s!0 s!0)) (* a!4 a!4 q!3 q!3 q!3 s!0 s!0) (* (- 2) (* a!4 q!3 q!3 q!3 b!2 s!0 s!0)) ?x1516 (* (- 3) (* a!4 a!4 q!3 b!2 s!0 s!0 s!0 s!0)) ?x885 ?x775)))
 (let ((?x2105 (* p!5 a!4 a!4 a!4 a!4 q!3 q!3 b!2 b!2 r!1 s!0)))
 (let ((?x1550 (* p!5 a!4 a!4 a!4 a!4 a!4 q!3 q!3 b!2 r!1 s!0)))
 (let ((?x1532 (* p!5 a!4 a!4 a!4 a!4 a!4 a!4 q!3 q!3 r!1 s!0)))
 (let ((?x1545 (* p!5 p!5 a!4 a!4 a!4 q!3 b!2 b!2 b!2 r!1 s!0)))
 (let ((?x2134 (* p!5 p!5 a!4 a!4 a!4 a!4 q!3 b!2 b!2 r!1 s!0)))
 (let ((?x2043 (* p!5 p!5 a!4 a!4 a!4 a!4 a!4 q!3 b!2 r!1 s!0)))
 (let ((?x2038 (* p!5 p!5 a!4 a!4 a!4 a!4 a!4 a!4 q!3 r!1 s!0)))
 (let ((?x1792 (* p!5 a!4 a!4 a!4 q!3 q!3 b!2 b!2 b!2 r!1 r!1)))
 (let ((?x1787 (* p!5 a!4 a!4 a!4 a!4 q!3 q!3 b!2 b!2 r!1 r!1)))
 (let ((?x1865 (* p!5 a!4 a!4 a!4 a!4 a!4 q!3 q!3 b!2 r!1 r!1)))
 (let ((?x714 (* p!5 a!4 a!4 a!4 a!4 a!4 a!4 q!3 q!3 r!1 r!1)))
 (let ((?x706 (* p!5 p!5 a!4 a!4 a!4 q!3 b!2 b!2 b!2 r!1 r!1)))
 (let ((?x587 (* p!5 p!5 a!4 a!4 a!4 a!4 q!3 b!2 b!2 r!1 r!1)))
 (let ((?x665 (* p!5 p!5 a!4 a!4 a!4 a!4 a!4 q!3 b!2 r!1 r!1)))
 (let ((?x1676 (* p!5 p!5 a!4 a!4 a!4 a!4 a!4 a!4 q!3 r!1 r!1)))
 (let ((?x546 (+ ?x1826 ?x620 ?x1110 ?x1454 ?x1455 ?x1465 (* 3 (* a!4 a!4 a!4 q!3 r!1 r!1 s!0 s!0)) ?x2046 ?x2050 ?x448 ?x579 (* 2 ?x1676) (* (- 6) ?x665) (* 6 ?x587) (* (- 2) ?x706) (* (- 1) ?x714) (* 3 ?x1865) (* (- 3) ?x1787) ?x1792 ?x1757 ?x2087 ?x1507 ?x1513 (* (- 2) ?x2038) (* 6 ?x2043) (* (- 6) ?x2134) (* 2 ?x1545) ?x1532 (* (- 3) ?x1550) (* 3 ?x2105) ?x2013 (* a!4 a!4 a!4 q!3 r!1 r!1 r!1 r!1) (* (- 3) (* a!4 a!4 a!4 q!3 r!1 r!1 r!1 s!0)) ?x507 ?x535)))
 (let ((?x1811 (+ (* b!2 q00 r00) (* (- 1) (* b!2 p00 s00)) (* s!0 p00 b00) (* (- 1) (* q!3 r00 b00)) (* q!3 s00 a00) (* (- 1) (* s!0 q00 a00)))))
 (let ((?x653 (+ (* a!4 p00 s00) (* (- 1) (* a!4 q00 r00)) (* p!5 r00 b00) (* (- 1) (* r!1 p00 b00)) (* (- 1) (* p!5 s00 a00)) (* r!1 q00 a00))))
 (let (($x1007 (= (+ (* a!4 s!0) (* (- 1) ?x1013) (* (- 1) ?x134) (* r00 b00)) 0)))
 (let (($x1901 (and (= (+ (* p!5 s!0) (* (- 1) ?x37) ?x41 (* (- 1) ?x1220)) 0) $x1007 (= (+ ?x123 (* a!4 q!3) ?x184 ?x1017) 0) (= ?x653 0) (= ?x1811 0) (or (not (= (* ?x546 ?x275) 0)) (not (= (* ?x756 ?x275) 0))))))
 (let (($x389 (exists ((p Int) (a Int) (q Int) (b Int) (r Int) (s Int) )(! (let ((?x169 (* p b)))
 (let ((?x138 (* q00 a00)))
 (let ((?x130 (* a q)))
 (let ((?x131 (* (- 1) ?x130)))
 (let ((?x123 (* p00 b00)))
 (let ((?x137 (* (- 1) ?x123)))
 (let ((?x521 (+ ?x137 ?x131 ?x138 ?x169)))
 (let ((?x1032 (* q q q b b s s)))
 (let ((?x1107 (* (- 2) (* a q q q b s s))))
 (let ((?x1009 (* a a q q q s s)))
 (let ((?x1102 (* (- 3) (* p q q b b s s))))
 (let ((?x1099 (* 6 (* p a q q b s s))))
 (let ((?x1096 (* (- 3) (* p a a q q s s))))
 (let ((?x1093 (* 3 (* p p q b b s s))))
 (let ((?x1090 (* (- 6) (* p p a q b s s))))
 (let ((?x1087 (* 3 (* p p a a q s s))))
 (let ((?x1071 (* (- 1) (* p p p b b s s))))
 (let ((?x1084 (* 2 (* p p p a b s s))))
 (let ((?x1069 (* (- 1) (* p p p a a s s))))
 (let ((?x680 (* q q q b b b b b b s s)))
 (let ((?x761 (* (- 3) (* a q q q b b b b b s s))))
 (let ((?x758 (* 3 (* a a q q q b b b b s s))))
 (let ((?x727 (* (- 1) (* a a a q q q b b b s s))))
 (let ((?x726 (* (- 1) (* p q q b b b b b b s s))))
 (let ((?x755 (* 3 (* p a q q b b b b b s s))))
 (let ((?x752 (* (- 3) (* p a a q q b b b b s s))))
 (let ((?x558 (* p a a a q q b b b s s)))
 (let ((?x722 (* (- 1) (* q q q b b b b b b r s))))
 (let ((?x747 (* 3 (* a q q q b b b b b r s))))
 (let ((?x744 (* (- 3) (* a a q q q b b b b r s))))
 (let ((?x492 (* a a a q q q b b b r s)))
 (let ((?x482 (* p q q b b b b b b r s)))
 (let ((?x737 (* (- 3) (* p a q q b b b b b r s))))
 (let ((?x734 (* 3 (* p a a q q b b b b r s))))
 (let ((?x715 (* (- 1) (* p a a a q q b b b r s))))
 (let ((?x357 (* (- 1) (* a a a q r s s s))))
 (let ((?x2198 (+ (* 3 (* a a q b r s s s)) ?x357 ?x715 ?x734 (* a a a q s s s s) ?x737 ?x482 ?x492 ?x744 ?x747 ?x722 ?x558 ?x752 ?x755 ?x726 ?x727 ?x758 ?x761 ?x680 (* (- 3) (* a q b b r s s s)) ?x1069 ?x1084 ?x1071 ?x1087 ?x1090 ?x1093 ?x1096 ?x1099 ?x1102 (* 3 (* a q b b s s s s)) ?x1009 ?x1107 ?x1032 (* (- 3) (* a a q b s s s s)) (* q b b b r s s s) (* (- 1) (* q b b b s s s s)))))
 (let ((?x1896 (* (- 1) (* p p p a a r r))))
 (let ((?x1900 (* 2 (* p p p a a r s))))
 (let ((?x1860 (* 3 (* p a a a a q q b b r s))))
 (let ((?x1857 (* (- 3) (* p a a a a a q q b r s))))
 (let ((?x1692 (* p a a a a a a q q r s)))
 (let ((?x1852 (* 2 (* p p a a a q b b b r s))))
 (let ((?x1849 (* (- 6) (* p p a a a a q b b r s))))
 (let ((?x1846 (* 6 (* p p a a a a a q b r s))))
 (let ((?x1843 (* (- 2) (* p p a a a a a a q r s))))
 (let ((?x1796 (* (- 1) (* p p p a a a b b b r s))))
 (let ((?x1840 (* 3 (* p p p a a a a b b r s))))
 (let ((?x1837 (* (- 3) (* p p p a a a a a b r s))))
 (let ((?x1500 (* p p p a a a a a a r s)))
 (let ((?x1490 (* p a a a q q b b b r r)))
 (let ((?x1830 (* (- 3) (* p a a a a q q b b r r))))
 (let ((?x1827 (* 3 (* p a a a a a q q b r r))))
 (let ((?x1789 (* (- 1) (* p a a a a a a q q r r))))
 (let ((?x1824 (* (- 2) (* p p a a a q b b b r r))))
 (let ((?x1821 (* 6 (* p p a a a a q b b r r))))
 (let ((?x1818 (* (- 6) (* p p a a a a a q b r r))))
 (let ((?x1815 (* 2 (* p p a a a a a a q r r))))
 (let ((?x1298 (* p p p a a a b b b r r)))
 (let ((?x1810 (* (- 3) (* p p p a a a a b b r r))))
 (let ((?x1807 (* 3 (* p p p a a a a a b r r))))
 (let ((?x1781 (* (- 1) (* p p p a a a a a a r r))))
 (let ((?x997 (+ ?x357 ?x715 (* (- 3) (* p a a a r r s s)) (* 3 (* p a a a r r r s)) (* (- 1) (* p a a a r r r r)) ?x1069 (* 3 (* a a a q r r s s)) ?x1781 ?x1807 ?x1810 ?x1298 ?x1815 ?x1818 ?x1821 ?x1824 ?x1789 ?x1827 ?x1830 ?x1490 ?x1500 ?x1837 ?x1840 ?x1796 ?x1843 ?x1846 ?x1849 ?x1852 ?x1692 ?x1857 ?x1860 (* p a a a r s s s) (* a a a q r r r r) (* (- 3) (* a a a q r r r s)) ?x1900 ?x1896)))
 (let ((?x72 (* b q00 r00)))
 (let ((?x316 (+ ?x72 (* (- 1) (* b p00 s00)) (* s p00 b00) (* (- 1) (* q r00 b00)) (* q s00 a00) (* (- 1) (* s q00 a00)))))
 (let (($x321 (= ?x316 0)))
 (let ((?x63 (* a p00 s00)))
 (let ((?x252 (+ ?x63 (* (- 1) (* a q00 r00)) (* p r00 b00) (* (- 1) (* r p00 b00)) (* (- 1) (* p s00 a00)) (* r q00 a00))))
 (let (($x253 (= ?x252 0)))
 (let (($x187 (= (+ ?x123 ?x130 (* (- 1) ?x138) (* (- 1) ?x169)) 0)))
 (let ((?x152 (* r00 b00)))
 (let ((?x134 (* s00 a00)))
 (let ((?x141 (* (- 1) ?x134)))
 (let ((?x49 (* a s)))
 (let (($x167 (= (+ ?x49 (* (- 1) (* b r)) ?x141 ?x152) 0)))
 (let ((?x41 (* q00 r00)))
 (let ((?x37 (* p00 s00)))
 (let ((?x143 (* (- 1) ?x37)))
 (let ((?x33 (* p s)))
 (let (($x162 (= (+ ?x33 ?x143 ?x41 (* (- 1) (* q r))) 0)))
 (and $x162 $x167 $x187 $x253 $x321 (or (not (= (* ?x997 ?x521) 0)) (not (= (* ?x2198 ?x521) 0)))))))))))))))))))))))))))))))))))))))))))))))))))))))))))))))))))))))))))))))))))) :qid k!39))
 ))
 (let (($x279 (exists ((p Int) (a Int) (q Int) (b Int) (r Int) (s Int) )(! (let ((?x57 (* b00 p00)))
 (let ((?x1050 (* (- 1) ?x57)))
 (let ((?x55 (* a00 q00)))
 (let ((?x1471 (+ (* (- 1) (* (+ a (* (- 1) b)) q)) ?x55 ?x1050 (* (+ p (* (- 1) q)) b))))
 (let ((?x992 (+ p (* (- 1) q))))
 (let ((?x262 (* (- 1) b)))
 (let ((?x1077 (+ a ?x262)))
 (let ((?x349 (* (- 1) s)))
 (let ((?x1535 (+ r ?x349)))
 (let ((?x1808 (* (- 1) (* ?x1535 ?x1077 ?x1077 ?x1077 ?x992 s b b b q q))))
 (let ((?x1117 (+ (* (- 1) (* ?x1535 ?x1077 ?x1077 ?x1077 s s s q)) ?x1808 (* (- 1) (* ?x1077 ?x1077 ?x992 ?x992 ?x992 s s)))))
 (let ((?x1343 (+ (* (- 1) (* (+ q (* (- 1) p)) a)) ?x55 ?x1050 (* (+ b (* (- 1) a)) p))))
 (let ((?x1125 (* (- 1) r)))
 (let ((?x965 (+ s ?x1125)))
 (let ((?x354 (* (- 1) p)))
 (let ((?x1280 (+ q ?x354)))
 (let ((?x1627 (+ b (* (- 1) a))))
 (let ((?x474 (* (- 1) (* ?x965 ?x1627 ?x1627 ?x1627 ?x1280 ?x1280 r a a a p))))
 (let ((?x1517 (+ (* (- 1) (* ?x965 ?x965 ?x965 ?x1280 r a a a)) ?x474 (* (- 1) (* ?x965 ?x965 a a p p p)))))
 (let (($x320 (or (not (= (* ?x1517 ?x1343) 0)) (not (= (* ?x1117 ?x1471) 0)))))
 (let ((?x73 (* b00 p00 s)))
 (let ((?x1476 (+ (* q00 r00 b) ?x73 (* (- 1) (* b00 r00 q)) (* (- 1) (* p00 s00 b)) (* a00 s00 q) (* (- 1) (* a00 q00 s)))))
 (let (($x1631 (= ?x1476 0)))
 (let ((?x69 (* a00 q00 r)))
 (let ((?x1100 (* p00 s00 a)))
 (let ((?x1072 (* b00 r00 p)))
 (let ((?x820 (+ ?x1072 ?x1100 (* (- 1) (* b00 p00 r)) (* (- 1) (* q00 r00 a)) (* (- 1) (* a00 s00 p)) ?x69)))
 (let (($x1046 (= (+ (* q a) (* (- 1) ?x55) ?x57 (* (- 1) (* b p))) 0)))
 (let ((?x47 (* a00 s00)))
 (let ((?x916 (* r b)))
 (let (($x1109 (= (+ ?x916 ?x47 (* (- 1) (* s a)) (* (- 1) (* b00 r00))) 0)))
 (let ((?x41 (* q00 r00)))
 (let ((?x934 (* (- 1) ?x41)))
 (let ((?x37 (* p00 s00)))
 (let ((?x1043 (* r q)))
 (and (= (+ ?x1043 (* (- 1) (* s p)) ?x37 ?x934) 0) $x1109 $x1046 (= ?x820 0) $x1631 $x320)))))))))))))))))))))))))))))))))))) :qid k!39))
 ))
 (let ((?x392 (lambda ((p Int) (a Int) (q Int) (b Int) (r Int) (s Int) )(let ((?x169 (* p b)))
 (let ((?x138 (* q00 a00)))
 (let ((?x130 (* a q)))
 (let ((?x131 (* (- 1) ?x130)))
 (let ((?x123 (* p00 b00)))
 (let ((?x137 (* (- 1) ?x123)))
 (let ((?x521 (+ ?x137 ?x131 ?x138 ?x169)))
 (let ((?x1032 (* q q q b b s s)))
 (let ((?x1107 (* (- 2) (* a q q q b s s))))
 (let ((?x1009 (* a a q q q s s)))
 (let ((?x1102 (* (- 3) (* p q q b b s s))))
 (let ((?x1099 (* 6 (* p a q q b s s))))
 (let ((?x1096 (* (- 3) (* p a a q q s s))))
 (let ((?x1093 (* 3 (* p p q b b s s))))
 (let ((?x1090 (* (- 6) (* p p a q b s s))))
 (let ((?x1087 (* 3 (* p p a a q s s))))
 (let ((?x1071 (* (- 1) (* p p p b b s s))))
 (let ((?x1084 (* 2 (* p p p a b s s))))
 (let ((?x1069 (* (- 1) (* p p p a a s s))))
 (let ((?x680 (* q q q b b b b b b s s)))
 (let ((?x761 (* (- 3) (* a q q q b b b b b s s))))
 (let ((?x758 (* 3 (* a a q q q b b b b s s))))
 (let ((?x727 (* (- 1) (* a a a q q q b b b s s))))
 (let ((?x726 (* (- 1) (* p q q b b b b b b s s))))
 (let ((?x755 (* 3 (* p a q q b b b b b s s))))
 (let ((?x752 (* (- 3) (* p a a q q b b b b s s))))
 (let ((?x558 (* p a a a q q b b b s s)))
 (let ((?x722 (* (- 1) (* q q q b b b b b b r s))))
 (let ((?x747 (* 3 (* a q q q b b b b b r s))))
 (let ((?x744 (* (- 3) (* a a q q q b b b b r s))))
 (let ((?x492 (* a a a q q q b b b r s)))
 (let ((?x482 (* p q q b b b b b b r s)))
 (let ((?x737 (* (- 3) (* p a q q b b b b b r s))))
 (let ((?x734 (* 3 (* p a a q q b b b b r s))))
 (let ((?x715 (* (- 1) (* p a a a q q b b b r s))))
 (let ((?x357 (* (- 1) (* a a a q r s s s))))
 (let ((?x2198 (+ (* 3 (* a a q b r s s s)) ?x357 ?x715 ?x734 (* a a a q s s s s) ?x737 ?x482 ?x492 ?x744 ?x747 ?x722 ?x558 ?x752 ?x755 ?x726 ?x727 ?x758 ?x761 ?x680 (* (- 3) (* a q b b r s s s)) ?x1069 ?x1084 ?x1071 ?x1087 ?x1090 ?x1093 ?x1096 ?x1099 ?x1102 (* 3 (* a q b b s s s s)) ?x1009 ?x1107 ?x1032 (* (- 3) (* a a q b s s s s)) (* q b b b r s s s) (* (- 1) (* q b b b s s s s)))))
 (let ((?x1896 (* (- 1) (* p p p a a r r))))
 (let ((?x1900 (* 2 (* p p p a a r s))))
 (let ((?x1860 (* 3 (* p a a a a q q b b r s))))
 (let ((?x1857 (* (- 3) (* p a a a a a q q b r s))))
 (let ((?x1692 (* p a a a a a a q q r s)))
 (let ((?x1852 (* 2 (* p p a a a q b b b r s))))
 (let ((?x1849 (* (- 6) (* p p a a a a q b b r s))))
 (let ((?x1846 (* 6 (* p p a a a a a q b r s))))
 (let ((?x1843 (* (- 2) (* p p a a a a a a q r s))))
 (let ((?x1796 (* (- 1) (* p p p a a a b b b r s))))
 (let ((?x1840 (* 3 (* p p p a a a a b b r s))))
 (let ((?x1837 (* (- 3) (* p p p a a a a a b r s))))
 (let ((?x1500 (* p p p a a a a a a r s)))
 (let ((?x1490 (* p a a a q q b b b r r)))
 (let ((?x1830 (* (- 3) (* p a a a a q q b b r r))))
 (let ((?x1827 (* 3 (* p a a a a a q q b r r))))
 (let ((?x1789 (* (- 1) (* p a a a a a a q q r r))))
 (let ((?x1824 (* (- 2) (* p p a a a q b b b r r))))
 (let ((?x1821 (* 6 (* p p a a a a q b b r r))))
 (let ((?x1818 (* (- 6) (* p p a a a a a q b r r))))
 (let ((?x1815 (* 2 (* p p a a a a a a q r r))))
 (let ((?x1298 (* p p p a a a b b b r r)))
 (let ((?x1810 (* (- 3) (* p p p a a a a b b r r))))
 (let ((?x1807 (* 3 (* p p p a a a a a b r r))))
 (let ((?x1781 (* (- 1) (* p p p a a a a a a r r))))
 (let ((?x997 (+ ?x357 ?x715 (* (- 3) (* p a a a r r s s)) (* 3 (* p a a a r r r s)) (* (- 1) (* p a a a r r r r)) ?x1069 (* 3 (* a a a q r r s s)) ?x1781 ?x1807 ?x1810 ?x1298 ?x1815 ?x1818 ?x1821 ?x1824 ?x1789 ?x1827 ?x1830 ?x1490 ?x1500 ?x1837 ?x1840 ?x1796 ?x1843 ?x1846 ?x1849 ?x1852 ?x1692 ?x1857 ?x1860 (* p a a a r s s s) (* a a a q r r r r) (* (- 3) (* a a a q r r r s)) ?x1900 ?x1896)))
 (let ((?x72 (* b q00 r00)))
 (let ((?x316 (+ ?x72 (* (- 1) (* b p00 s00)) (* s p00 b00) (* (- 1) (* q r00 b00)) (* q s00 a00) (* (- 1) (* s q00 a00)))))
 (let (($x321 (= ?x316 0)))
 (let ((?x63 (* a p00 s00)))
 (let ((?x252 (+ ?x63 (* (- 1) (* a q00 r00)) (* p r00 b00) (* (- 1) (* r p00 b00)) (* (- 1) (* p s00 a00)) (* r q00 a00))))
 (let (($x253 (= ?x252 0)))
 (let (($x187 (= (+ ?x123 ?x130 (* (- 1) ?x138) (* (- 1) ?x169)) 0)))
 (let ((?x152 (* r00 b00)))
 (let ((?x134 (* s00 a00)))
 (let ((?x141 (* (- 1) ?x134)))
 (let ((?x49 (* a s)))
 (let (($x167 (= (+ ?x49 (* (- 1) (* b r)) ?x141 ?x152) 0)))
 (let ((?x41 (* q00 r00)))
 (let ((?x37 (* p00 s00)))
 (let ((?x143 (* (- 1) ?x37)))
 (let ((?x33 (* p s)))
 (let (($x162 (= (+ ?x33 ?x143 ?x41 (* (- 1) (* q r))) 0)))
 (let (($x2259 (and $x162 $x167 $x187 $x253 $x321 (or (not (= (* ?x997 ?x521) 0)) (not (= (* ?x2198 ?x521) 0))))))
 (let ((?x57 (* b00 p00)))
 (let ((?x1050 (* (- 1) ?x57)))
 (let ((?x55 (* a00 q00)))
 (let ((?x1471 (+ (* (- 1) (* (+ a (* (- 1) b)) q)) ?x55 ?x1050 (* (+ p (* (- 1) q)) b))))
 (let ((?x992 (+ p (* (- 1) q))))
 (let ((?x262 (* (- 1) b)))
 (let ((?x1077 (+ a ?x262)))
 (let ((?x349 (* (- 1) s)))
 (let ((?x1535 (+ r ?x349)))
 (let ((?x1808 (* (- 1) (* ?x1535 ?x1077 ?x1077 ?x1077 ?x992 s b b b q q))))
 (let ((?x1117 (+ (* (- 1) (* ?x1535 ?x1077 ?x1077 ?x1077 s s s q)) ?x1808 (* (- 1) (* ?x1077 ?x1077 ?x992 ?x992 ?x992 s s)))))
 (let ((?x1343 (+ (* (- 1) (* (+ q (* (- 1) p)) a)) ?x55 ?x1050 (* (+ b (* (- 1) a)) p))))
 (let ((?x1125 (* (- 1) r)))
 (let ((?x965 (+ s ?x1125)))
 (let ((?x354 (* (- 1) p)))
 (let ((?x1280 (+ q ?x354)))
 (let ((?x1627 (+ b (* (- 1) a))))
 (let ((?x474 (* (- 1) (* ?x965 ?x1627 ?x1627 ?x1627 ?x1280 ?x1280 r a a a p))))
 (let ((?x1517 (+ (* (- 1) (* ?x965 ?x965 ?x965 ?x1280 r a a a)) ?x474 (* (- 1) (* ?x965 ?x965 a a p p p)))))
 (let (($x320 (or (not (= (* ?x1517 ?x1343) 0)) (not (= (* ?x1117 ?x1471) 0)))))
 (let ((?x73 (* b00 p00 s)))
 (let ((?x1476 (+ (* q00 r00 b) ?x73 (* (- 1) (* b00 r00 q)) (* (- 1) (* p00 s00 b)) (* a00 s00 q) (* (- 1) (* a00 q00 s)))))
 (let (($x1631 (= ?x1476 0)))
 (let ((?x69 (* a00 q00 r)))
 (let ((?x1100 (* p00 s00 a)))
 (let ((?x1072 (* b00 r00 p)))
 (let ((?x820 (+ ?x1072 ?x1100 (* (- 1) (* b00 p00 r)) (* (- 1) (* q00 r00 a)) (* (- 1) (* a00 s00 p)) ?x69)))
 (let (($x1046 (= (+ (* q a) (* (- 1) ?x55) ?x57 (* (- 1) (* b p))) 0)))
 (let ((?x47 (* a00 s00)))
 (let ((?x916 (* r b)))
 (let (($x1109 (= (+ ?x916 ?x47 (* (- 1) (* s a)) (* (- 1) (* b00 r00))) 0)))
 (let (($x1021 (= (+ (* r q) (* (- 1) (* s p)) ?x37 (* (- 1) ?x41)) 0)))
 (let (($x1242 (and $x1021 $x1109 $x1046 (= ?x820 0) $x1631 $x320)))
 (rewrite (= $x1242 $x2259)))))))))))))))))))))))))))))))))))))))))))))))))))))))))))))))))))))))))))))))))))))))))))))))))))))))))))))))))))))
 ))
 (let (($x976 (exists ((p Int) (a Int) (q Int) (b Int) (r Int) (s Int) )(! (let ((?x57 (* b00 p00)))
 (let ((?x1050 (* (- 1) ?x57)))
 (let ((?x55 (* a00 q00)))
 (let ((?x1471 (+ (* (- 1) (* (+ a (* (- 1) b)) q)) ?x55 ?x1050 (* (+ p (* (- 1) q)) b))))
 (let ((?x992 (+ p (* (- 1) q))))
 (let ((?x262 (* (- 1) b)))
 (let ((?x1077 (+ a ?x262)))
 (let ((?x349 (* (- 1) s)))
 (let ((?x1535 (+ r ?x349)))
 (let ((?x1808 (* (- 1) (* ?x1535 ?x1077 ?x1077 ?x1077 ?x992 s b b b q q))))
 (let ((?x1117 (+ (* (- 1) (* ?x1535 ?x1077 ?x1077 ?x1077 s s s q)) ?x1808 (* (- 1) (* ?x1077 ?x1077 ?x992 ?x992 ?x992 s s)))))
 (let ((?x1343 (+ (* (- 1) (* (+ q (* (- 1) p)) a)) ?x55 ?x1050 (* (+ b (* (- 1) a)) p))))
 (let ((?x1125 (* (- 1) r)))
 (let ((?x965 (+ s ?x1125)))
 (let ((?x354 (* (- 1) p)))
 (let ((?x1280 (+ q ?x354)))
 (let ((?x1627 (+ b (* (- 1) a))))
 (let ((?x474 (* (- 1) (* ?x965 ?x1627 ?x1627 ?x1627 ?x1280 ?x1280 r a a a p))))
 (let ((?x1517 (+ (* (- 1) (* ?x965 ?x965 ?x965 ?x1280 r a a a)) ?x474 (* (- 1) (* ?x965 ?x965 a a p p p)))))
 (let (($x320 (or (not (= (* ?x1517 ?x1343) 0)) (not (= (* ?x1117 ?x1471) 0)))))
 (let ((?x73 (* b00 p00 s)))
 (let ((?x1476 (+ (* q00 r00 b) ?x73 (* (- 1) (* b00 r00 q)) (* (- 1) (* p00 s00 b)) (* a00 s00 q) (* (- 1) (* a00 q00 s)))))
 (let (($x1631 (= ?x1476 0)))
 (let ((?x938 (* a00 s00 p)))
 (let ((?x1723 (* q00 r00 a)))
 (let ((?x65 (* b00 p00 r)))
 (let ((?x605 (+ (* (- 1) (* b00 r00 p)) (* (- 1) (* p00 s00 a)) ?x65 ?x1723 ?x938 (* (- 1) (* a00 q00 r)))))
 (let ((?x51 (* b00 r00)))
 (let ((?x1111 (* s a)))
 (let (($x1243 (= (+ (* (- 1) (* r b)) (* (- 1) (* a00 s00)) ?x1111 ?x51) 0)))
 (let ((?x41 (* q00 r00)))
 (let ((?x37 (* p00 s00)))
 (let ((?x143 (* (- 1) ?x37)))
 (let ((?x1010 (* s p)))
 (and (= (+ (* (- 1) (* r q)) ?x1010 ?x143 ?x41) 0) $x1243 (= (+ (* (- 1) (* q a)) ?x55 ?x1050 (* b p)) 0) (= ?x605 0) $x1631 $x320))))))))))))))))))))))))))))))))))) :qid k!39))
 ))
 (let ((?x1113 (lambda ((p Int) (a Int) (q Int) (b Int) (r Int) (s Int) )(let ((?x57 (* b00 p00)))
 (let ((?x1050 (* (- 1) ?x57)))
 (let ((?x55 (* a00 q00)))
 (let ((?x1471 (+ (* (- 1) (* (+ a (* (- 1) b)) q)) ?x55 ?x1050 (* (+ p (* (- 1) q)) b))))
 (let ((?x992 (+ p (* (- 1) q))))
 (let ((?x262 (* (- 1) b)))
 (let ((?x1077 (+ a ?x262)))
 (let ((?x349 (* (- 1) s)))
 (let ((?x1535 (+ r ?x349)))
 (let ((?x1808 (* (- 1) (* ?x1535 ?x1077 ?x1077 ?x1077 ?x992 s b b b q q))))
 (let ((?x1117 (+ (* (- 1) (* ?x1535 ?x1077 ?x1077 ?x1077 s s s q)) ?x1808 (* (- 1) (* ?x1077 ?x1077 ?x992 ?x992 ?x992 s s)))))
 (let ((?x1343 (+ (* (- 1) (* (+ q (* (- 1) p)) a)) ?x55 ?x1050 (* (+ b (* (- 1) a)) p))))
 (let ((?x1125 (* (- 1) r)))
 (let ((?x965 (+ s ?x1125)))
 (let ((?x354 (* (- 1) p)))
 (let ((?x1280 (+ q ?x354)))
 (let ((?x1627 (+ b (* (- 1) a))))
 (let ((?x474 (* (- 1) (* ?x965 ?x1627 ?x1627 ?x1627 ?x1280 ?x1280 r a a a p))))
 (let ((?x1517 (+ (* (- 1) (* ?x965 ?x965 ?x965 ?x1280 r a a a)) ?x474 (* (- 1) (* ?x965 ?x965 a a p p p)))))
 (let (($x320 (or (not (= (* ?x1517 ?x1343) 0)) (not (= (* ?x1117 ?x1471) 0)))))
 (let ((?x73 (* b00 p00 s)))
 (let ((?x1476 (+ (* q00 r00 b) ?x73 (* (- 1) (* b00 r00 q)) (* (- 1) (* p00 s00 b)) (* a00 s00 q) (* (- 1) (* a00 q00 s)))))
 (let (($x1631 (= ?x1476 0)))
 (let ((?x69 (* a00 q00 r)))
 (let ((?x1100 (* p00 s00 a)))
 (let ((?x1072 (* b00 r00 p)))
 (let ((?x820 (+ ?x1072 ?x1100 (* (- 1) (* b00 p00 r)) (* (- 1) (* q00 r00 a)) (* (- 1) (* a00 s00 p)) ?x69)))
 (let (($x1046 (= (+ (* q a) (* (- 1) ?x55) ?x57 (* (- 1) (* b p))) 0)))
 (let ((?x47 (* a00 s00)))
 (let ((?x916 (* r b)))
 (let (($x1109 (= (+ ?x916 ?x47 (* (- 1) (* s a)) (* (- 1) (* b00 r00))) 0)))
 (let ((?x41 (* q00 r00)))
 (let ((?x934 (* (- 1) ?x41)))
 (let ((?x37 (* p00 s00)))
 (let ((?x1043 (* r q)))
 (let (($x1242 (and (= (+ ?x1043 (* (- 1) (* s p)) ?x37 ?x934) 0) $x1109 $x1046 (= ?x820 0) $x1631 $x320)))
 (let ((?x938 (* a00 s00 p)))
 (let ((?x1723 (* q00 r00 a)))
 (let ((?x65 (* b00 p00 r)))
 (let (($x930 (= (+ (* (- 1) ?x1072) (* (- 1) ?x1100) ?x65 ?x1723 ?x938 (* (- 1) ?x69)) 0)))
 (let (($x1243 (= (+ (* (- 1) ?x916) (* (- 1) ?x47) (* s a) (* b00 r00)) 0)))
 (let (($x343 (and (= (+ (* (- 1) ?x1043) (* s p) (* (- 1) ?x37) ?x41) 0) $x1243 (= (+ (* (- 1) (* q a)) ?x55 ?x1050 (* b p)) 0) $x930 $x1631 $x320)))
 (rewrite (= $x343 $x1242)))))))))))))))))))))))))))))))))))))))))))))
 ))
 (let (($x118 (exists ((p Int) (a Int) (q Int) (b Int) (r Int) (s Int) )(! (let ((?x107 (- s r)))
 (let ((?x100 (- q p)))
 (let ((?x104 (- b a)))
 (let ((?x111 (- (* (- 1) a a a ?x100 r ?x107 ?x107 ?x107) (* a a a ?x104 ?x104 ?x104 p ?x100 ?x100 r ?x107))))
 (let ((?x106 (+ (- (+ (* (- 1) a ?x100) (* a00 q00)) (* b00 p00)) (* ?x104 p))))
 (let (($x115 (not (= (* ?x106 (- ?x111 (* a a p p p ?x107 ?x107))) 0))))
 (let ((?x88 (- p q)))
 (let ((?x84 (- a b)))
 (let ((?x91 (- r s)))
 (let ((?x95 (- (* (- 1) ?x84 ?x84 ?x84 q ?x91 s s s) (* ?x84 ?x84 ?x84 b b b ?x88 q q ?x91 s))))
 (let ((?x90 (+ (- (+ (* (- 1) ?x84 q) (* a00 q00)) (* b00 p00)) (* b ?x88))))
 (let (($x99 (not (= (* ?x90 (- ?x95 (* ?x84 ?x84 ?x88 ?x88 ?x88 s s))) 0))))
 (let ((?x81 (* a00 q00 s)))
 (let ((?x76 (* b p00 s00)))
 (let ((?x77 (- (+ (* b q00 r00) (* b00 p00 s)) (* b00 q r00))))
 (let ((?x69 (* a00 q00 r)))
 (let ((?x66 (* a q00 r00)))
 (let ((?x65 (* b00 p00 r)))
 (let ((?x68 (+ (- (* (- 1) b00 p r00) (* a p00 s00)) ?x65 ?x66 (* a00 p s00))))
 (let ((?x59 (* b p)))
 (let ((?x60 (+ (- (+ (* (- 1) a q) (* a00 q00)) (* b00 p00)) ?x59)))
 (let ((?x51 (* b00 r00)))
 (let ((?x49 (* a s)))
 (let (($x53 (= (+ (- (* (- 1) b r) (* a00 s00)) ?x49 ?x51) 0)))
 (let ((?x41 (* q00 r00)))
 (let ((?x42 (+ (- (+ (* (- 1) q r) (* p s)) (* p00 s00)) ?x41)))
 (and (= ?x42 0) $x53 (= ?x60 0) (= (- ?x68 ?x69) 0) (= (- (+ (- ?x77 ?x76) (* a00 q s00)) ?x81) 0) (or $x99 $x115)))))))))))))))))))))))))))) :qid k!39))
 ))
 (let ((?x464 (lambda ((p Int) (a Int) (q Int) (b Int) (r Int) (s Int) )(let ((?x57 (* b00 p00)))
 (let ((?x1050 (* (- 1) ?x57)))
 (let ((?x55 (* a00 q00)))
 (let ((?x1471 (+ (* (- 1) (* (+ a (* (- 1) b)) q)) ?x55 ?x1050 (* (+ p (* (- 1) q)) b))))
 (let ((?x992 (+ p (* (- 1) q))))
 (let ((?x262 (* (- 1) b)))
 (let ((?x1077 (+ a ?x262)))
 (let ((?x349 (* (- 1) s)))
 (let ((?x1535 (+ r ?x349)))
 (let ((?x1808 (* (- 1) (* ?x1535 ?x1077 ?x1077 ?x1077 ?x992 s b b b q q))))
 (let ((?x1117 (+ (* (- 1) (* ?x1535 ?x1077 ?x1077 ?x1077 s s s q)) ?x1808 (* (- 1) (* ?x1077 ?x1077 ?x992 ?x992 ?x992 s s)))))
 (let ((?x1343 (+ (* (- 1) (* (+ q (* (- 1) p)) a)) ?x55 ?x1050 (* (+ b (* (- 1) a)) p))))
 (let ((?x1125 (* (- 1) r)))
 (let ((?x965 (+ s ?x1125)))
 (let ((?x354 (* (- 1) p)))
 (let ((?x1280 (+ q ?x354)))
 (let ((?x1627 (+ b (* (- 1) a))))
 (let ((?x474 (* (- 1) (* ?x965 ?x1627 ?x1627 ?x1627 ?x1280 ?x1280 r a a a p))))
 (let ((?x1517 (+ (* (- 1) (* ?x965 ?x965 ?x965 ?x1280 r a a a)) ?x474 (* (- 1) (* ?x965 ?x965 a a p p p)))))
 (let (($x320 (or (not (= (* ?x1517 ?x1343) 0)) (not (= (* ?x1117 ?x1471) 0)))))
 (let ((?x73 (* b00 p00 s)))
 (let ((?x1476 (+ (* q00 r00 b) ?x73 (* (- 1) (* b00 r00 q)) (* (- 1) (* p00 s00 b)) (* a00 s00 q) (* (- 1) (* a00 q00 s)))))
 (let (($x1631 (= ?x1476 0)))
 (let ((?x938 (* a00 s00 p)))
 (let ((?x1723 (* q00 r00 a)))
 (let ((?x65 (* b00 p00 r)))
 (let ((?x605 (+ (* (- 1) (* b00 r00 p)) (* (- 1) (* p00 s00 a)) ?x65 ?x1723 ?x938 (* (- 1) (* a00 q00 r)))))
 (let ((?x51 (* b00 r00)))
 (let ((?x1111 (* s a)))
 (let (($x1243 (= (+ (* (- 1) (* r b)) (* (- 1) (* a00 s00)) ?x1111 ?x51) 0)))
 (let ((?x41 (* q00 r00)))
 (let ((?x37 (* p00 s00)))
 (let ((?x143 (* (- 1) ?x37)))
 (let ((?x1010 (* s p)))
 (let (($x343 (and (= (+ (* (- 1) (* r q)) ?x1010 ?x143 ?x41) 0) $x1243 (= (+ (* (- 1) (* q a)) ?x55 ?x1050 (* b p)) 0) (= ?x605 0) $x1631 $x320)))
 (let ((?x107 (- s r)))
 (let ((?x100 (- q p)))
 (let ((?x104 (- b a)))
 (let ((?x111 (- (* (- 1) a a a ?x100 r ?x107 ?x107 ?x107) (* a a a ?x104 ?x104 ?x104 p ?x100 ?x100 r ?x107))))
 (let ((?x113 (* (+ (- (+ (* (- 1) a ?x100) ?x55) ?x57) (* ?x104 p)) (- ?x111 (* a a p p p ?x107 ?x107)))))
 (let ((?x88 (- p q)))
 (let ((?x84 (- a b)))
 (let ((?x91 (- r s)))
 (let ((?x95 (- (* (- 1) ?x84 ?x84 ?x84 q ?x91 s s s) (* ?x84 ?x84 ?x84 b b b ?x88 q q ?x91 s))))
 (let ((?x97 (* (+ (- (+ (* (- 1) ?x84 q) ?x55) ?x57) (* b ?x88)) (- ?x95 (* ?x84 ?x84 ?x88 ?x88 ?x88 s s)))))
 (let ((?x81 (* a00 q00 s)))
 (let ((?x76 (* b p00 s00)))
 (let ((?x80 (+ (- (- (+ (* b q00 r00) ?x73) (* b00 q r00)) ?x76) (* a00 q s00))))
 (let ((?x69 (* a00 q00 r)))
 (let ((?x66 (* a q00 r00)))
 (let ((?x68 (+ (- (* (- 1) b00 p r00) (* a p00 s00)) ?x65 ?x66 (* a00 p s00))))
 (let (($x61 (= (+ (- (+ (* (- 1) a q) ?x55) ?x57) (* b p)) 0)))
 (let (($x53 (= (+ (- (* (- 1) b r) (* a00 s00)) (* a s) ?x51) 0)))
 (let (($x44 (= (+ (- (+ (* (- 1) q r) (* p s)) ?x37) ?x41) 0)))
 (let (($x117 (and $x44 $x53 $x61 (= (- ?x68 ?x69) 0) (= (- ?x80 ?x81) 0) (or (not (= ?x97 0)) (not (= ?x113 0))))))
 (rewrite (= $x117 $x343))))))))))))))))))))))))))))))))))))))))))))))))))))))))))
 ))
 (let ((@x119 (asserted $x118)))
 (let ((@x610 (mp (mp @x119 (quant-intro (proof-bind ?x464) (= $x118 $x976)) $x976) (rewrite (= $x976 $x976)) $x976)))
 (let ((@x1230 (mp (mp @x610 (quant-intro (proof-bind ?x1113) (= $x976 $x279)) $x279) (quant-intro (proof-bind ?x392) (= $x279 $x389)) $x389)))
 (let ((@x812 (mp (mp~ @x1230 (sk (~ $x389 $x1901)) $x1901) (rewrite (= $x1901 $x1223)) $x1223)))
 (let ((@x1912 (and-elim @x812 $x1186)))
 (let ((@x234 (unit-resolution ((_ th-lemma arith triangle-eq) (or (not $x1186) $x1480)) @x1912 $x1480)))
 (let (($x861 (<= ?x1023 0)))
 (let ((@x1999 (unit-resolution ((_ th-lemma arith triangle-eq) (or (not $x1186) $x861)) @x1912 $x861)))
 (let (($x305 (not (<= ?x869 0))))
 (let (($x1881 (>= ?x550 0)))
 (let (($x893 (<= ?x550 0)))
 (let ((@x1386 (unit-resolution ((_ th-lemma arith triangle-eq) (or $x839 (not $x893) (not $x1881))) (lemma ((_ th-lemma arith farkas 1 1 1) (hypothesis (not $x893)) @x1999 @x234 false) $x893) (lemma ((_ th-lemma arith farkas 1 1 1) (hypothesis (not $x1881)) @x1999 @x234 false) $x1881) $x839)))
 (let (($x865 (>= ?x869 0)))
 (let ((@x688 (unit-resolution ((_ th-lemma arith triangle-eq) (or $x509 $x305 (not $x865))) (lemma ((_ th-lemma arith farkas 1 1 1) (hypothesis (not $x865)) @x1999 @x234 false) $x865) (unit-resolution (and-elim @x812 $x1342) @x1386 $x894) $x305)))
 ((_ th-lemma arith farkas 1 1 1) @x688 @x1999 @x234 false))))))))))))))))))))))))))))))))))))))))))))))))))))))))))))))))))))))))))))))))))))))))))))))))))))))))))))))))))))))))))))))))))))))))))))))))))))))))

(:added-eqs                 10
 :arith-assert-diseq        3
 :arith-assert-lower        19
 :arith-assert-upper        18
 :arith-conflicts           4
 :arith-eq-adapter          11
 :arith-fixed-eqs           6
 :arith-grobner             4
 :arith-max-min             864
 :arith-nonlinear-horner    30
 :arith-num-rows            8
 :arith-pivots              5
 :arith-pseudo-nonlinear    8
 :arith-row-summations      1
 :arith-tableau-max-columns 121
 :arith-tableau-max-rows    8
 :conflicts                 4
 :decisions                 7
 :del-clause                27
 :final-checks              4
 :max-memory                424.55
 :memory                    3.33
 :mk-bool-var               39
 :mk-clause                 40
 :num-allocs                39587404731256.00
 :num-checks                1
 :propagations              19
 :rlimit-count              140247073
 :time                      120.57
 :total-time                120.55)
